VACCINE = Vaccine(1..4);
m = 24;
age = [ADULT, BABY, CHILD, SENIOR, SENIOR, ADULT, AGED, AGED, BABY, BABY, CHILD, ADULT, YOUTH, ADULT, CHILD, CHILD, BABY, BABY, BABY, ANCIENT, ADULT, YOUTH, ANCIENT, BABY];
gender = [FEMALE, FEMALE, OTHER, MALE, OTHER, MALE, FEMALE, MALE, MALE, FEMALE, MALE, FEMALE, OTHER, FEMALE, MALE, FEMALE, FEMALE, MALE, MALE, OTHER, OTHER, MALE, FEMALE, OTHER];
health = [POOR, COMPROMISED, POOR, GOOD, POOR, COMPROMISED, COMPROMISED, GOOD, POOR, POOR, COMPROMISED, POOR, POOR, COMPROMISED, GOOD, GOOD, POOR, POOR, GOOD, COMPROMISED, COMPROMISED, POOR, POOR, POOR];
exposure = [LOW, HIGH, EXTREME, HIGH, LOW, LOW, AVERAGE, HIGH, HIGH, AVERAGE, LOW, LOW, AVERAGE, AVERAGE, HIGH, EXTREME, LOW, EXTREME, LOW, LOW, HIGH, EXTREME, AVERAGE, HIGH];
size = [7, 9, 8, 11, 10, 9, 8, 8, 6, 10, 11, 7, 8, 7, 9, 7, 6, 7, 7, 8, 11, 11, 10, 10];
minsize = 6;
age_group_min = [1, 0, 0, 0, 0, 0, 0];
age_group_max = [20, 17, 16, 19, 22, 17, 23];
max_people_diff = 114;
max_share_vaccines = 4;
health_information = {11, 12, 22};
exposure_information = {2, 4, 8, 22};